[on. 05. april 09:00:58 +0200 2023]  ./input/alternate_g_np_100/100-1-3.gcc
Set parameter Username
Academic license - for non-commercial use only - expires 2024-03-28
Set parameter TimeLimit to value 1800
Set parameter PreCrush to value 1
Set parameter LazyConstraints to value 1
Gurobi Optimizer version 10.0.1 build v10.0.1rc0 (linux64)

CPU model: AMD Ryzen 9 5950X 16-Core Processor, instruction set [SSE2|AVX|AVX2]
Thread count: 16 physical cores, 32 logical processors, using up to 32 threads

Optimize a model with 106 rows, 700 columns and 1900 nonzeros
Model fingerprint: 0x9d84515c
Variable types: 0 continuous, 700 integer (700 binary)
Coefficient statistics:
  Matrix range     [1e+00, 1e+00]
  Objective range  [2e+00, 1e+02]
  Bounds range     [1e+00, 1e+00]
  RHS range        [1e+00, 1e+00]
Presolve added 5 rows and 5 columns
Presolve time: 0.00s
Presolved: 111 rows, 705 columns, 1415 nonzeros
Variable types: 0 continuous, 705 integer (700 binary)

Root relaxation: objective 4.891000e+03, 1 iterations, 0.00 seconds (0.00 work units)

    Nodes    |    Current Node    |     Objective Bounds      |     Work
 Expl Unexpl |  Obj  Depth IntInf | Incumbent    BestBd   Gap | It/Node Time

     0     0 4891.00000    0    -          - 4891.00000      -     -    0s
     0     0 4891.00000    0    -          - 4891.00000      -     -    0s
     0     0 4891.00000    0    -          - 4891.00000      -     -    0s
     0     0 4891.00000    0    -          - 4891.00000      -     -    0s
     0     0 4891.00000    0    -          - 4891.00000      -     -    0s
     0     0 4891.00000    0    8          - 4891.00000      -     -    0s
     0     0 4891.00000    0   14          - 4891.00000      -     -    0s
     0     0 3810.00000    0    -          - 3810.00000      -     -    0s
     0     0 3810.00000    0   17          - 3810.00000      -     -    0s
     0     0 3810.00000    0   20          - 3810.00000      -     -    0s
     0     0 3804.00000    0    4          - 3804.00000      -     -    0s
     0     2 3781.33333    0   29          - 3781.33333      -     -    0s
  2945  2742 2621.16800   18  257          - 2756.00000      -  74.2    5s
* 3967  3230              38    2000.0000000 2756.00000  37.8%   103    6s
H 5979  3385                    2205.0000000 2756.00000  25.0%   109   13s
H 5980  3192                    2241.0000000 2756.00000  23.0%   109   13s
H 6007  2866                    2558.0000059 2756.00000  7.74%   110   13s
  6795  2563 2569.92816   33  195 2558.00001 2729.00000  6.68%   118   15s

Cutting planes:
  User: 487
  Lazy constraints: 215

Explored 11751 nodes (1436459 simplex iterations) in 19.10 seconds (37.15 work units)
Thread count was 32 (of 32 available processors)

Solution count 4: 2558 2241 2205 2000 

Optimal solution found (tolerance 1.00e-04)
Best objective 2.558000005928e+03, best bound 2.558000005928e+03, gap 0.0000%

User-callback calls 26659, time in user-callback 2.31 sec
Minimal separator inequalities added: 37593
Indegree inequalities added: 49493
WRONG SOLUTION
[on. 05. april 09:01:17 +0200 2023]  done

